50
    1    42    31
    2    42    42
    3    18     6
    4    18    25
    5    27    14
    6     7    13
    7    17    25
    8    19    41
    9    44    19
   10    34    12
   11    37    25
   12    27    37
   13    49    10
   14    30    36
   15     9     6
   16    50    46
   17    30     7
   18    38    18
   19    36    29
   20    19     8
   21     3     1
   22     9     3
   23    40    38
   24    46    50
   25     7    32
   26    20    20
   27    34    24
   28    47     7
   29    36    15
   30    28    47
   31    11    19
   32     6    27
   33    24    35
   34    25    35
   35    39     6
   36     3    15
   37    35    48
   38    33    14
   39     8     2
   40    47    30
   41    18     3
   42    29    13
   43    49    48
   44     3     9
   45    28    25
   46    11     6
   47    36    21
   48    34    15
   49    12    31
   50    37     2
181
